
 102   30
  10   10   10   10   10   10   10   10   10   10   10   10   10   10   10   10   10   10   10   10   10   10   10   10   10   10   10   10   10   10

   0   0   0   0   0   0   0   0   0   0   0   0   0   0   0   0   0   0   0   0   0   0   0   0   0   0   0   0   0   0   0  23 2 3 4 5 6 7 8 9 10 11 12 13 15 17 20 23 24 26 30 33 34 40 44 
   8   0   0   0   0   4   0   0   0   0   0   0   0   0   0   0   0   0   0   0   4   0   0   0   0   0   1   0   5   0   0  14 65 64 54 51 50 45 43 42 39 37 31 22 21 19 
  10   0   0   0   0   0   0   0   0   0   0   0   1   0   0   0   1   0   0   0   0   1   0   0   0   0   0   2   5   0   0   9 55 52 47 37 36 28 25 16 14 
   5   0   0   0   0   0   0   0   0   0   0   2   0   1   3   0   0   1   0   0   0   0   1   0   0   0   0   9   0   0   0  11 69 64 55 53 52 50 49 47 36 25 14 
   9   1   0   0   0   0   0   0   0   0   0   0   0   0   0   0   6   0   0   1   0   0   5   0   0   0   0   0   6   0   0  20 95 79 78 71 69 64 62 60 59 57 55 54 53 52 48 46 41 39 37 27 
   2   0   3   0   0   0   0   0   0   0   0   0   8   0   0   0   0   0   2   0   0   0   0   0   0   0   0   0   0   0   0  16 71 70 69 64 62 61 58 57 56 53 48 42 37 36 27 25 
   1   0   0   0   0   0   1   0   0   2   0   0   0   0   5   0   0   0   0   0   0   0   0   0   0   0   0   0   6   0   0  20 101 100 98 78 75 70 64 63 62 61 59 57 56 54 50 49 48 43 42 29 
  10   0   6   0   0   0   0   0   0   0   0   0   8   8   3   0   0   0   0   0   0   0   0   0   0   0   0   0   0   0   0  12 101 100 78 71 68 61 57 56 50 48 38 21 
   8   0   0   0   0   0   0   0   0   0   0   0   0   0   0   0  10   0   2   0   0   0   0   0   0   0   0   2   0   0   1   9 101 77 61 57 35 32 31 29 18 
   2   0  10   1   0   0   0   0   0   0   1   0   6   0   0   0  10   0   0  10   0   5   0   0   0   0   0   0   0   0   0  11 95 92 78 69 68 61 57 48 36 32 21 
   1   0   0   0   0   0   0   0   0   0   0   0   0   0   0   0   0   0   0   4   0   4   0   0   0   0   0   0   0   0   0  15 100 75 70 69 67 64 62 56 55 53 48 46 43 37 25 
   7   0   9   0   2   0   0   0   0   0   0   0   3   0   0   0   0   0   0   0   0   0   0   0   0   0   0   0   0   0   0  10 79 78 61 60 48 46 45 36 35 28 
   9   0   0   0   0   0   6   0   0   0   0   0   0   0   0   0   5   0   0   0   0   0   0   0   0   0   0   0   0   0   0  10 98 70 68 64 63 61 49 45 36 19 
   1   0   0   0   0   3   0   0   0   0   0   0   0   0   0   0   0   0   0   0   0   0   0   0   0   0   6   0   6   0   0  16 99 98 97 93 79 78 76 68 62 61 60 58 57 56 48 27 
   7   0   0   0   0   0   6   1   0   0   4   0   0   0   0   0   0   0   0   0   0   0   0   0   0   0   0   0   0   0   0  10 75 73 72 63 61 53 49 48 47 25 
   9   9   0   0   0   0   0   0   0   0   0   0   0   0   0   0   0   0   0   0   0   0   0   0   0   0   0   6   0   0   0  11 100 79 78 77 76 75 67 58 46 43 35 
   9   0   0   0   0   8   0   0   0   0   9   0   0   0   0   0   0   0   0   0   0   0   0   0   2   0   0   0   0   0   0  14 100 98 97 95 78 76 75 73 67 66 57 55 54 37 
   4   0   0   0   0   0   0   0   1   0   6   0   6   0   0   0   5   0   0   0   3   0   0   0   0   0   0   0   0   0   0  10 100 98 92 91 68 62 50 46 45 42 
   5   0   5   0   0   0   0   0   0   0   0   0   0   0   0   0   0   0   8   0   0   0   0   0   0   0   0   0   0   0   0  21 100 99 97 96 95 93 92 91 90 78 76 74 73 72 71 69 67 66 60 52 48 
   6   0   3   0   0   0   4   0  10   0   0   0   0   0   0   0   0   0   0   0   0   0   0   0   0   0   0   0   0   0   0  10 98 97 85 76 74 66 59 54 43 28 
   3   0   0   7   0   0   0   9   0   0   0   0   0   0   6   0   0   0   0   0   0   0   0   0   7   0   0   0   0   0   0   9 79 75 70 67 63 60 49 46 35 
   4   8   7   0   2   0   0   0   0   0   0   7   0   0   0   0   0   3   0   0   0   0   0   0   0   0   4   0   6   0   4  17 101 97 96 93 90 87 86 77 75 74 73 69 67 62 58 57 53 
   3   3   0   0  10   0   0   0   0   0   0   0   0   0   0   0   4   0   0   0   0   0   0   0   0   1   0   0   0   0   0  12 101 96 94 92 76 75 72 69 67 61 46 43 
   9   0   0   0   5   0   0   0   0  10   0   5   0   0   0   3   0   0   0   9   0   0   0   0   0   0   7   0   0   1   0  15 100 99 95 94 93 92 77 75 73 72 67 64 63 61 46 
   2   0   0   0   0   0   0   8   0   0   0   0   0   0   0   0   0   0   0   0   0   0   0   0   0   0   0   0   0   0   0  18 101 98 97 95 94 92 91 87 85 82 79 78 77 76 74 68 66 60 
   2   0   0   0   0   7   0   0   0   0   0   0   0   0   0   8   0   0   2   0   2   0   0   0   0   0   0   0   0   0   0  18 101 100 99 98 97 96 93 92 91 90 87 83 81 77 75 72 67 57 
   2   0   6   0   0   0   0   6   0   0   0   0   0   0   0   0   0   0   9   0   0   0   0   0   0   0  10   0   7   0   0  13 101 100 96 94 92 91 88 87 73 67 66 63 51 
   2   0   0   0   0   0   0   0   0   0   0   0   0   0   0   0   0   0   0   0   0   0   0   0   0   0   0   0   0   4   0  15 95 94 93 92 91 90 87 86 77 72 70 69 68 67 64 
  10   0   0   0   0   0   0   0   0   9   0   0   0   0   0   0   0   0   0   5   0   0   0   1   0   6   0   0   0   8   0  12 99 96 95 92 91 76 73 72 69 67 66 46 
   4   0   0   0   0   0   0   6   7   0   0   0   0   7   0   0   0   0   0   0   0   0   0   0   0   0   0   0   0   0   9  18 99 95 94 93 92 91 90 89 88 87 86 85 84 83 75 74 73 72 
   3   0   0   0   0   0   8   0   0   0   0   0   0   0   0   0   0   6   0   4   0   0   0   0   0   9   0   0   0   0   0  18 100 98 96 95 93 92 91 90 89 88 87 85 84 83 82 78 76 73 
   7   0   0   0   7   0   0   0   0   0   0   0   0   0   0   0   6   0   0   0   8   0   0   0   0   0   0   0   0   0   8  15 100 96 94 93 91 89 87 86 85 82 76 73 72 70 66 
   2   0   0   5   6   0   0   0   0   0   0   0   8   0   0   0   0   0   0   9   0   0   0   0   0   0   8   0   0   0   8  14 100 97 96 93 91 90 89 87 82 81 77 72 66 61 
   1   0   8   0   0   0   0   0   0   0   0   0   0   0   0  10   0   6   0   0   0   0   0   0   8   0   0   0   0   9   4  12 99 95 91 90 88 87 83 74 73 68 67 61 
   1   0   0   0   0   0   0   0   0   0   0   0   8   0   0   0   0   0   0   0   0   6   0   0   6   0   0   0   0   0   0   8 96 93 86 82 74 73 62 53 
   3   0   0   0   0   6   0   0   0  10   7   0   0   0   0   0   0   0   0   0   0   0   0   0   9   0   0   0   0   6   0  13 101 100 96 90 89 87 85 84 82 76 74 73 66 
  10   0   0   0   0   0   0   7   0   0   0   0   0   0   0   0   0   0   0   0   0   0   0   5   0   0   0   5   0   0   0   7 93 92 91 85 72 63 49 
   7   0   0   0  10   0   0   0   0   0   7   0   0   8   0   0   5   0   0   0   5   0   0   0   0   0   0   0   0   0   0   9 99 92 90 89 87 83 75 67 60 
   8   6   0   6   0   0   0  10   0   0   0   0   0   0   0   0   0   0   0   0   8   0   0   0   0   0   0   0   0   0   0   8 96 94 92 87 77 76 72 56 
   1   0   5  10   0   3   0   0   0   0   0   0   0   0   0   0   0   0   0   0   0   0   0   0   0   0   0   0   0  10   0   9 97 93 91 90 88 87 78 66 61 
   8   0   0   0   0   0   0   0   0   0   0   0   0   0   0   0   0   0   0   0   0   0   0   0   0   0   2   8   0   0   3   8 87 86 84 83 74 73 72 63 
   3   0   0   0   0   0   0   0   0   6   0   0   0   0   0   6   3   0   0   0   0   0   0   0   0   0   0   0   0   0   0   6 96 82 79 74 73 60 
   8   0   0   3   0   0   0   0   0   5   0   0   0   0   4   0   0   0  10   0   0   0   0   6   4   0   0   0   0   0   0   7 95 91 87 86 82 73 68 
   9   8   6   0   0   0   0   0   0   0   0   0   0   0   0   0   7   0   0   0   0   0   0   0   0   0   0   5   0   0   0   7 99 93 90 82 73 72 66 
   3   0   7   0   0   0   9   0   0   0   0   0   0   0   0   0   0   0   8   5   0   0   0   0   0   0   0   0   0   0   0   6 88 86 76 75 72 67 
   6   0   0   0   0   0   0   0   0   4   0   0   0   0   0   0   0   0   0   0   0   0   0   0   0   0   0   0   0   0   0   9 97 90 88 87 85 83 82 81 80 
   9   0   0   0   0   0   0   5   0   0   0   0   0   0   0   6   0   0   0   0   0   0   0   0   0   0   0   5   0   0   5   7 101 96 86 85 83 82 67 
   3   0   0   0   0   0   0   0   0   0  10   0   0   0   0   0   0   7   0   0   0   0   0   5   0   8   0   0   0   0   0   7 94 88 87 84 83 81 77 
   5   0   0   0   0   0   5   0   0   0   6   0   0   0   0   0   0   0   0   5   0   0   0   0   0   0   0   0   0  10   0   7 99 90 88 87 83 82 74 
   5   0   0   0   0   0   0   0   0   0   0   0   0   0   0   0   0   0   5   0   6   0   6   0   0   0   0   5   0   0   0   7 95 93 87 85 84 82 76 
   3   0   0   7   0   0   8   0   0   0   0   0   0   0   0   0   0   0   9   0   0   0   0   0   0   6   0   0   0   0   0   6 89 86 85 81 75 74 
   4   0   0   0   0   0   0   0   0   0   0   0   0   4   0   0   0   0   0   5   0   0   0   0   0   0   0   6   0   0   7   6 89 87 84 83 77 75 
   7   0   0   0   0   6   0   0   0   0   0  10   0   0   5   4   0   0   0   6   0   0   0   0   0   0   0   0   0   0   0   6 98 94 91 89 85 80 
   4   0   0   0   0   0   0   0   0   0   0   0   0   0   0   3   0   0   0   0   0   0   0   9   0   0   0   0   0   3   0   6 93 88 86 83 82 80 
   5   0   0   3   0   0   0   0   0   0   0   0   0   0   0   0   7   5   0   0   0   0   0   0   0  10   0   0   0   0   0   6 94 88 86 83 82 81 
   3   0   0   0   0   0   0   0   0   0   0   0   0   0   4   4   0   0   0   7   0   0   8   0   0   0   7   0   5   0   0   4 90 86 85 66 
   2   0   0   0   0   0   0   0   0   0   0   4   0   0   0   6   0   0   0   0   0   0   0   0   4   0   2   0   0   0   0   5 89 88 85 84 80 
   6   0   0   8   0   0   0   0   0   0   0   0   0   4   0   0   0   0   0   0   0   0   0   6   0   0   0   0   9   0   0   5 95 92 85 82 80 
   4   0   0  10   0   0   0   0   0   0   0   0   0   0   8   0   0   0   4   7   0   5   0   0   0   0   0   0   7   0   0   3 86 73 72 
   4   0   0   7   0   0   0   0   0   0   0   0   0   0   0   0   0   0   0   0   0   0   0   0   0   0   9   0   0   0   0   4 88 86 81 80 
   6   0   0   0   0   0   0   0   0   0   0   0   0   0   8  10   0   0   0   0   0   0   0   0   8   0   0   0   0   0   7   4 86 85 84 80 
   8   0   3   0   0   0   0   0   0   0   0   0   0   0   0   0   0   9   0   0   0   0   0   0   0   0   0  10   0   0   0   2 72 66 
   3   0   0   0   0   0   0   0   0   0  10   0   0   0   0   0   0   0   0   0   0   0   0   0   0   3   7   0   0   0   0   3 82 81 80 
   9   0   0   0   0   0   0   0   0   0   5   0   0   0   7   0   0   0  10   0   0   0   0   5  10   0   0   0   0   0   0   3 88 84 83 
   6   3   0   0   0   0   4   0   0   0   0   0   0   0   0   0   8   0   0   0   5   0   0   0   0   0   0   0   0   0   4   3 85 81 80 
   2   0   0   0   8   7   0   3   0   0   6   7   0   0   0   0   0   0   0   0   0   7   0   0   0   0   0   0   0   0   0   2 83 80 
   7   0   0   8   0   0   0   0   0   0   4   0   0   0   0   0   0   0   0   0   0   0   0   0   3   7   6   0   0   0   0   2 84 80 
   7   0   0   0   0   0   5   0   0   0   0   2   0   0   0   0   0   0   0   8   0   0   0   0   0   5   0   0   0   0   5   2 89 80 
   8   0   0   7   0   0   0   0   0   0   0   8   0   0   8   0   0   0   0   0   0   0   0   0   0   0   0   0   0   0   0   2 82 81 
   4   0   0   0   0   0   0   0   0   0   0   0   0   0  10  10   0   0   0   0   7   0   0   0   0   0   0   0   0   0   0   2 84 80 
   8   0   0   0   0   0   0   0   0   0   0   0   0   0   0   0   9   0   0   0   0   0   0   7   0   0   0   0   0   0   0   2 88 81 
  10   0   0   0   0   0   0   0   7   0   0   0   0   0   0   3   0   0   0   0   0   0   0   0   0   0   0   0   0   0   0   1 80 
   9   0   0   0   0   0   0   0   0   0   0   0   0   0   0   0   0   0   0   0   0   0   0   0   0   0   6   0   0   0   0   1 81 
   4   0   0   0   0   0   0   0   0   0   0   0   0   0   2   0   0   0   0   0   0   0   0   0   0   0   0   0   0   0   0   1 80 
   7   8   0   0   0   0   0   0   0   0   0   0   0   0   0   0   7   0   0   0   0   0   0   0   0   0   0   5  10   0   8   1 82 
   5   0   0   0   0  10   0   0   0   0   0   0   0   0   0   0   0   0   0   0   0   0   0   5   3   0   0   0   0   0   0   1 81 
   8   0   0   0   0   6   0   0   0   6   0   0   0   0  10   0   0   0   0   0   0   0   0   0   0   0   0   0   0   0   6   1 80 
  10   0   0   2   0   0   0   0   0   5   0   0   0   0   0   0   7   0   0   0   0   0   0   0   0   0   0   0   0   0   0   1 80 
   6   0   0   0   5   0   0   0   4   0   0   0   0   0   0   0   0   0   0   0   3   7   8   0   0   0   0   0   0   0   0   1 84 
   5   7   0   0   0   0   0   0   0   0   0   0   0   0   0   0   0   0   0   0   9   0   0   0   6   0   6   0   0   0   7   1 102
   7   0   0   0   0   0   0   0   0   0   6   0   0   0   0   5   0   0   0   0   0   0   8   8   0   0   0   0   0   0   0   1 102
   5   0   0   0   0   0   0   0   0   0   0   0   0   0   4   0   0   0   0   0   0   0   0   0   0   0   7   0   0   0   7   1 102
   5   0   0   0   0   0   0   0   0   7   0   0   0   0   0   0   0   0   0   0   0   0   0   0   0   0   0   0   0   0   6   1 102
   6   0   0   0   5   0   0   5   0   0   0   0   0   6   0   0   0   0   0   0   0   5   0   0   0   0   6   0   0   0   0   1 102
   8   0   0   0   0   0   0   0   5   7   0   0   7   0   0   0   0   0   0   0   0   0   0  10   0   0   0   0   0   0   0   1 102
   4   0   0   0   0   0   0   0   0   0   0   6   0   0   0   0   0   0   5   0   0   0   0   0   0   0   0   0   0   0   0   1 102
   2   0   0   0   0   0   5   0   0   0   8   0   0   0   0   0   0   0   0   0   0   0   0   0   8   0   0   0   3   0   0   1 102
   4   3   0   0   0   0   7   0   0   0   4   0   0   0   9   0   0   0   0   0   0   0   0   0   0   0   0   0   0   0   8   1 102
   6   0   0   0   6   0   0   0   0   0   0   0   0   0   0   0   4   0   0   0   0   0   0   0   0   0   0   0   0   0   0   1 102
   7   0   0   0   0   0   0   0   0   0   0   0   0   0   0   0   0   0   0   0   0   0   0   0   0   0   0   0   0   5   0   1 102
   6   0   0   0   0   0   0   0   0   0   0   0   0   0   0   0   0  10   0   0   0   9   0   5   0   7   0   0   3   0   0   1 102
   3   9   7   0   0   0   8   0   0   0   0   0   0   7   0   0   0   0   0   0   8   0   0   0   0   0   0   0   0   0   7   1 102
   5   0   0   0   0   0   0   0   0   0   0   9   0  10   0   0   0   7   0   0  10   0   0   0   0   0   0   0   0   0   0   1 102
   7   0   7   0   0   0   0   0   0   0   0   0   0   0   6   0   0   0   0   0   0   0   0   0   0   0   0   0   0   0   0   1 102
   6   0   0   0   0   0   0   0   0   4   0   0   0   0   0   0   7   0   0   0   0   8   0   0   0   0   0   0   0   0   0   1 102
   2   0   0   0   0   0   0   0   8   0   3   0   0   0   0   0   0   9   0   5   0   0   0   0   0   5   8   0   0   0   0   1 102
   7   0   0   0   0   0   0   0   0   0   0   0   0   0   0   6   0   0   0   0   0   0   0   0   0   0   0  10   0   6   0   1 102
   1   0   7   0   0   0   0   0   0   4   0   0   7   5   0   0   0   0   0   0   0   0   0   0   0   8   0   0   0   0   0   1 102
   3   0   0   0   0   0   8   0   0   5   0   0   7   0   0   0   3   3   4   0   0   0   0   0   0   5   0   0   0   4   0   1 102
   9   0   3   0   0   0   0   0   0   0   0   0   3   0   0   0   0   0   0   0   0   0   0   0   0   0   0   0   0   0   0   1 102
   1   7   0   0   0   0   0   0   0   0   0   0   0   0   0   6   0   0   0   0   0   9   0   0   0   4   0   0   0   6   0   1 102
   0   0   0   0   0   0   0   0   0   0   0   0   0   0   0   0   0   0   0   0   0   0   0   0   0   0   0   0   0   0   0   0 
